(set-info :status unsat)
(declare-codatatypes ((T 0)) ((
  (f0)
  (f1 (proj0f1 T)))))
(assert (exists ((y18330 T) (y18317 T) (y18307 T) (y18306 T) (y18311 T) (y18329 T) (y18327 T) (y18334 T) (y18332 T) (y18313 T) (y18302 T) (y18325 T) (y18324 T) (y18312 T) (y18326 T) (y18321 T) (y18315 T) (y18316 T) (y18322 T) (y18318 T) (y18319 T) (y18304 T) (y18303 T) (y18328 T) (y18301 T) (y18320 T)) (forall ((x18339 T) (x18335 T) (x18337 T) (x18336 T) (x18340 T) (x18341 T) (x18342 T) (x18343 T) (x18344 T)) 
  (or 
    (and (= y18301 (f1 (f1 y18303))) (= y18303 (f1 y18304)) (= y18304 (f1 y18301)) (= y18302 (f1 x18340)) (= x18340 (f1 y18306)) (= y18306 (f1 y18307)) (= y18307 (f1 y18302)) (distinct y18301 y18302)) 
    (and (= x18335 (f1 x18335)) (= x18339 (f1 x18339)) (distinct x18335 x18339)) 
    (and (= x18336 (f1 y18312)) (= y18312 (f1 y18313)) (= y18313 x18344) (= y18311 (f1 x18342)) (= x18342 (f1 y18315)) (= y18315 (f1 y18311)) (distinct x18336 y18311)) 
    (and (= y18316 (f1 y18316)) (= y18317 (f1 y18317)) (distinct y18316 y18317)) 
    (and (= y18318 (f1 y18320)) (= y18320 (f1 y18321)) (= y18321 (f1 y18318)) (= y18319 (f1 (f1 y18322))) (= y18322 (f1 y18319)) (distinct y18318 y18319)) 
    (and (= x18343 (f1 (f1 y18325))) (= y18325 (f1 x18343)) (= y18324 (f1 (f1 (f1 y18324)))) (distinct x18343 y18324)) 
    (and (= y18326 (f1 (f1 (f1 (f1 y18328))))) (= y18328 (f1 y18326)) (= y18327 (f1 (f1 (f1 y18329)))) (= y18329 (f1 y18330)) (= y18330 (f1 y18327)) (distinct y18326 y18327)) 
    (and (= x18341 (f1 x18341)) (= y18332 (f1 y18332)) (distinct x18341 y18332)) 
    (and (= x18337 (f1 x18337)) (= y18334 (f1 y18334)) (distinct x18337 y18334))))))
(check-sat)
